41
75
51	1
50	2
49	3
48	4
47	4
46	2
45	1
43	2
42	2
41	1
40	2
39	3
38	2
37	3
36	3
35	3
34	4
33	4
32	3
31	3
30	1
29	1
28	1
27	1
26	1
25	3
24	2
23	1
21	6
20	2
19	3
18	4
16	3
15	2
14	5
13	3
12	2
11	1
10	2
8	3
7	1
